; benchmark generated from python API
(set-info :status unknown)
(declare-fun S_4 () Real)
(declare-fun L_0 () Real)
(declare-fun A_0 () Real)
(declare-fun A_1 () Real)
(declare-fun A_4 () Real)
(declare-fun Q_4 () Real)
(declare-fun A_3 () Real)
(declare-fun A_2 () Real)
(declare-fun S_3 () Real)
(declare-fun S_2 () Real)
(declare-fun S_1 () Real)
(declare-fun S_0 () Real)
(declare-fun a () Real)
(assert
 (exists ((I_0 Real) (I_1 Real) (I_2 Real) (I_3 Real) (I_4 Real) (L_1 Real) (L_2 Real) (L_3 Real) (L_4 Real) (C Real) (B Real) )(let ((?x35 (- A_0 L_0)))
 (let (($x124 (<= ?x35 S_4)))
 (let (($x122 (>= A_4 A_3)))
 (let (($x121 (>= A_3 A_2)))
 (let (($x120 (>= A_2 A_1)))
 (let (($x119 (>= A_1 A_0)))
 (let (($x117 (>= S_4 S_3)))
 (let (($x114 (>= S_3 S_2)))
 (let (($x111 (>= S_2 S_1)))
 (let (($x108 (>= S_1 S_0)))
 (let ((?x141 (- A_4 L_4)))
 (let ((?x153 (* C 1.0)))
 (let ((?x156 (+ I_3 ?x153)))
 (let (($x164 (= I_3 (ite (< (+ I_2 ?x153) (- A_3 L_3)) (+ I_2 ?x153) (- A_3 L_3)))))
 (let (($x169 (= I_2 (ite (< (+ I_1 ?x153) (- A_2 L_2)) (+ I_1 ?x153) (- A_2 L_2)))))
 (let (($x173 (= I_1 (ite (< (+ I_0 ?x153) (- A_1 L_1)) (+ I_0 ?x153) (- A_1 L_1)))))
 (let (($x174 (= L_4 L_3)))
 (let (($x179 (=> (not (> (- (- A_4 L_3) I_4) B)) $x174)))
 (let (($x177 (> (- (- A_4 L_3) I_4) B)))
 (let (($x183 (=> $x177 (= L_4 (- (- A_4 I_4) B)))))
 (let (($x184 (= L_3 L_2)))
 (let (($x189 (=> (not (> (- (- A_3 L_2) I_3) B)) $x184)))
 (let (($x187 (> (- (- A_3 L_2) I_3) B)))
 (let (($x193 (=> $x187 (= L_3 (- (- A_3 I_3) B)))))
 (let (($x194 (= L_2 L_1)))
 (let (($x199 (=> (not (> (- (- A_2 L_1) I_2) B)) $x194)))
 (let (($x197 (> (- (- A_2 L_1) I_2) B)))
 (let (($x203 (=> $x197 (= L_2 (- (- A_2 I_2) B)))))
 (let (($x204 (= L_1 L_0)))
 (let (($x208 (=> (not (> (- (- A_1 L_0) I_1) B)) $x204)))
 (let (($x206 (> (- (- A_1 L_0) I_1) B)))
 (let (($x212 (=> $x206 (= L_1 (- (- A_1 I_1) B)))))
 (let (($x42 (= a 1.0)))
 (let (($x34 (>= L_0 0.0)))
 (and $x34 (<= I_0 ?x35) (>= C (* 5.0 a)) (>= B (* 5.0 a)) $x42 $x212 $x208 $x203 $x199 $x193 $x189 $x183 $x179 $x212 $x208 $x203 $x199 $x193 $x189 $x183 $x179 $x173 $x169 $x164 (= I_4 (ite (< ?x156 ?x141) ?x156 ?x141)) (>= S_0 (- I_0 ?x153)) (<= S_0 I_0) (>= S_1 I_0) $x108 (<= S_1 I_1) (>= S_2 I_1) $x111 (<= S_2 I_2) (>= S_3 I_2) $x114 (<= S_3 I_3) (>= S_4 I_3) $x117 (<= S_4 I_4) $x119 $x120 $x121 $x122 (= Q_4 (- ?x141 I_4)) (> (- A_1 L_1) S_4) $x124))))))))))))))))))))))))))))))))))))
 )
(check-sat)
